NAME : single
TYPE : ATSP
DIMENSION : 5
EDGE_WEIGHT_TYPE : EXPLICIT
EDGE_WEIGHT_FORMAT : FULL_MATRIX
EDGE_WEIGHT_SECTION
0 340 227 148 248 
0 0 235 280 236 
0 235 0 172 89 
0 280 172 0 123 
0 236 89 123 0 
EOF